NAME : X_30_seed_123_id_17
TYPE : CVRP
DIMENSION : 237
EDGE_WEIGHT_TYPE : EUC_2D
CAPACITY : 18
NODE_COORD_SECTION
1	0	0
2	636	818
3	634	407
4	918	98
5	533	499
6	200	638
7	718	999
8	21	137
9	618	559
10	829	113
11	580	137
12	930	532
13	778	999
14	380	115
15	258	726
16	753	364
17	49	102
18	858	342
19	885	689
20	298	8
21	131	110
22	776	712
23	717	333
24	301	234
25	102	410
26	54	722
27	122	734
28	257	647
29	965	945
30	614	588
31	659	410
32	756	683
33	778	338
34	65	128
35	198	300
36	406	869
37	916	885
38	120	414
39	791	377
40	369	791
41	403	997
42	288	398
43	460	498
44	41	919
45	705	755
46	941	207
47	134	619
48	884	510
49	848	263
50	0	353
51	768	985
52	113	489
53	595	855
54	913	899
55	126	622
56	119	593
57	558	501
58	254	876
59	193	637
60	94	721
61	528	561
62	189	794
63	541	523
64	180	891
65	712	431
66	268	619
67	953	645
68	725	60
69	320	21
70	624	443
71	970	954
72	960	520
73	552	211
74	880	945
75	844	73
76	107	112
77	647	40
78	855	571
79	372	672
80	614	471
81	743	851
82	508	619
83	135	45
84	824	734
85	58	267
86	688	574
87	629	686
88	11	658
89	743	561
90	405	799
91	28	972
92	471	606
93	348	774
94	61	138
95	469	837
96	996	72
97	559	48
98	270	750
99	685	426
100	773	846
101	237	865
102	940	983
103	634	156
104	417	965
105	554	115
106	464	808
107	671	31
108	523	173
109	536	159
110	15	757
111	271	954
112	399	733
113	165	34
114	148	316
115	632	159
116	928	944
117	162	310
118	109	534
119	425	435
120	394	885
121	485	385
122	841	112
123	28	193
124	892	960
125	167	504
126	493	698
127	636	932
128	516	632
129	967	619
130	240	513
131	501	671
132	810	703
133	517	432
134	22	520
135	384	534
136	761	949
137	162	154
138	174	770
139	987	101
140	141	536
141	560	406
142	609	818
143	701	6
144	598	180
145	699	928
146	859	403
147	292	1
148	862	162
149	343	181
150	816	3
151	964	144
152	215	73
153	818	717
154	464	658
155	88	746
156	958	568
157	652	776
158	132	553
159	528	642
160	843	745
161	301	821
162	107	403
163	741	277
164	41	334
165	423	822
166	6	196
167	704	975
168	443	329
169	871	576
170	354	269
171	124	289
172	430	747
173	655	109
174	376	586
175	277	537
176	903	365
177	647	774
178	700	614
179	679	129
180	924	664
181	850	420
182	111	655
183	323	665
184	128	376
185	756	155
186	24	672
187	325	341
188	151	68
189	956	724
190	751	110
191	814	153
192	490	236
193	92	436
194	233	465
195	29	880
196	162	915
197	800	510
198	763	581
199	65	404
200	982	435
201	594	866
202	910	175
203	287	344
204	930	847
205	815	633
206	650	459
207	750	274
208	563	623
209	757	139
210	484	409
211	560	439
212	295	463
213	645	995
214	996	570
215	127	770
216	656	753
217	265	997
218	395	814
219	835	977
220	913	929
221	415	341
222	430	408
223	109	288
224	781	242
225	313	125
226	673	431
227	259	535
228	616	473
229	953	880
230	343	852
231	434	163
232	351	216
233	823	298
234	529	335
235	591	929
236	203	365
237	556	434
DEMAND_SECTION
1	0
2	1
3	1
4	1
5	1
6	1
7	1
8	1
9	1
10	1
11	1
12	1
13	1
14	1
15	1
16	1
17	1
18	1
19	1
20	1
21	1
22	1
23	1
24	1
25	1
26	1
27	1
28	1
29	1
30	1
31	1
32	1
33	1
34	1
35	1
36	1
37	1
38	1
39	1
40	1
41	1
42	1
43	1
44	1
45	1
46	1
47	1
48	1
49	1
50	1
51	1
52	1
53	1
54	1
55	1
56	1
57	1
58	1
59	1
60	1
61	1
62	1
63	1
64	1
65	1
66	1
67	1
68	1
69	1
70	1
71	1
72	1
73	1
74	1
75	1
76	1
77	1
78	1
79	1
80	1
81	1
82	1
83	1
84	1
85	1
86	1
87	1
88	1
89	1
90	1
91	1
92	1
93	1
94	1
95	1
96	1
97	1
98	1
99	1
100	1
101	1
102	1
103	1
104	1
105	1
106	1
107	1
108	1
109	1
110	1
111	1
112	1
113	1
114	1
115	1
116	1
117	1
118	1
119	1
120	1
121	1
122	1
123	1
124	1
125	1
126	1
127	1
128	1
129	1
130	1
131	1
132	1
133	1
134	1
135	1
136	1
137	1
138	1
139	1
140	1
141	1
142	1
143	1
144	1
145	1
146	1
147	1
148	1
149	1
150	1
151	1
152	1
153	1
154	1
155	1
156	1
157	1
158	1
159	1
160	1
161	1
162	1
163	1
164	1
165	1
166	1
167	1
168	1
169	1
170	1
171	1
172	1
173	1
174	1
175	1
176	1
177	1
178	1
179	1
180	1
181	1
182	1
183	1
184	1
185	1
186	1
187	1
188	1
189	1
190	1
191	1
192	1
193	1
194	1
195	1
196	1
197	1
198	1
199	1
200	1
201	1
202	1
203	1
204	1
205	1
206	1
207	1
208	1
209	1
210	1
211	1
212	1
213	1
214	1
215	1
216	1
217	1
218	1
219	1
220	1
221	1
222	1
223	1
224	1
225	1
226	1
227	1
228	1
229	1
230	1
231	1
232	1
233	1
234	1
235	1
236	1
237	1
DEPOT_SECTION
1
-1
EOF
